41075
0 0 0 0 1 0 1 0 0 0 0 0 0 1 0 1 0 1 1 0 0 0 0 1 1 1 0 0 1 1 
18 25 15 15 23 6 23 28 18 17 4 28 13 13 28 18 13 23 18 15 28 15 23 24 17 18 24 6 29 23 4 4 4 15 28 6 29 15 24 15 18 25 6 4 29 4 13 15 15 17 24 15 24 24 29 6 28 29 18 18 4 24 18 25 13 15 13 17 6 28 18 6 4 25 23 13 13 17 13 15 23 15 29 28 4 13 4 23 18 18 17 6 18 15 23 13 28 6 17 28 17 15 25 29 4 24 4 24 18 25 28 4 28 6 6 15 28 18 17 29 29 18 17 4 29 15 24 6 4 17 25 24 29 29 13 29 15 13 28 23 6 18 6 25 18 15 24 15 28 18 24 17 23 17 15 17 15 15 25 13 13 28 13 24 23 28 23 4 23 15 23 23 25 17 4 23 17 29 29 29 23 15 24 25 6 15 28 23 15 29 15 15 6 29 18 6 18 15 13 29 